NAME: 720.vrp-C145-R5
TYPE: SoftCluVRP
DIMENSION:  721 
VEHICLES:  11 
GVRP_SETS:  145 
CAPACITY:  1500 
EDGE_WEIGHT_TYPE: EUC_2D
NODE_COORD_SECTION 
1 0.000000 0.000000
2 30.000000 0.000000
3 29.630699 4.693000
4 28.531700 9.270500
5 26.730200 13.619700
6 24.270500 17.633600
7 21.213200 21.213200
8 17.633600 24.270500
9 13.619700 26.730200
10 9.270500 28.531700
11 4.693000 29.630699
12 0.000000 30.000000
13 -4.693000 29.630699
14 -9.270500 28.531700
15 -13.619700 26.730200
16 -17.633600 24.270500
17 -21.213200 21.213200
18 -24.270500 17.633600
19 -26.730200 13.619700
20 -28.531700 9.270500
21 -29.630699 4.693000
22 -30.000000 0.000000
23 -29.630699 -4.693000
24 -28.531700 -9.270500
25 -26.730200 -13.619700
26 -24.270500 -17.633600
27 -21.213200 -21.213200
28 -17.633600 -24.270500
29 -13.619700 -26.730200
30 -9.270500 -28.531700
31 -4.693000 -29.630699
32 -0.000000 -30.000000
33 4.693000 -29.630699
34 9.270500 -28.531700
35 13.619700 -26.730200
36 17.633600 -24.270500
37 21.213200 -21.213200
38 24.270500 -17.633600
39 26.730200 -13.619700
40 28.531700 -9.270500
41 29.630699 -4.693000
42 60.000000 0.000000
43 59.261299 9.386100
44 57.063400 18.541000
45 53.460400 27.239401
46 48.541000 35.267101
47 42.426399 42.426399
48 35.267101 48.541000
49 27.239401 53.460400
50 18.541000 57.063400
51 9.386100 59.261299
52 0.000000 60.000000
53 -9.386100 59.261299
54 -18.541000 57.063400
55 -27.239401 53.460400
56 -35.267101 48.541000
57 -42.426399 42.426399
58 -48.541000 35.267101
59 -53.460400 27.239401
60 -57.063400 18.541000
61 -59.261299 9.386100
62 -60.000000 0.000000
63 -59.261299 -9.386100
64 -57.063400 -18.541000
65 -53.460400 -27.239401
66 -48.541000 -35.267101
67 -42.426399 -42.426399
68 -35.267101 -48.541000
69 -27.239401 -53.460400
70 -18.541000 -57.063400
71 -9.386100 -59.261299
72 -0.000000 -60.000000
73 9.386100 -59.261299
74 18.541000 -57.063400
75 27.239401 -53.460400
76 35.267101 -48.541000
77 42.426399 -42.426399
78 48.541000 -35.267101
79 53.460400 -27.239401
80 57.063400 -18.541000
81 59.261299 -9.386100
82 90.000000 0.000000
83 88.891998 14.079100
84 85.595100 27.811501
85 80.190598 40.859100
86 72.811501 52.900700
87 63.639599 63.639599
88 52.900700 72.811501
89 40.859100 80.190598
90 27.811501 85.595100
91 14.079100 88.891998
92 0.000000 90.000000
93 -14.079100 88.891998
94 -27.811501 85.595100
95 -40.859100 80.190598
96 -52.900700 72.811501
97 -63.639599 63.639599
98 -72.811501 52.900700
99 -80.190598 40.859100
100 -85.595100 27.811501
101 -88.891998 14.079100
102 -90.000000 0.000000
103 -88.891998 -14.079100
104 -85.595100 -27.811501
105 -80.190598 -40.859100
106 -72.811501 -52.900700
107 -63.639599 -63.639599
108 -52.900700 -72.811501
109 -40.859100 -80.190598
110 -27.811501 -85.595100
111 -14.079100 -88.891998
112 -0.000000 -90.000000
113 14.079100 -88.891998
114 27.811501 -85.595100
115 40.859100 -80.190598
116 52.900700 -72.811501
117 63.639599 -63.639599
118 72.811501 -52.900700
119 80.190598 -40.859100
120 85.595100 -27.811501
121 88.891998 -14.079100
122 120.000000 0.000000
123 118.522598 18.772100
124 114.126801 37.082001
125 106.920799 54.478901
126 97.082001 70.534203
127 84.852798 84.852798
128 70.534203 97.082001
129 54.478901 106.920799
130 37.082001 114.126801
131 18.772100 118.522598
132 0.000000 120.000000
133 -18.772100 118.522598
134 -37.082001 114.126801
135 -54.478901 106.920799
136 -70.534203 97.082001
137 -84.852798 84.852798
138 -97.082001 70.534203
139 -106.920799 54.478901
140 -114.126801 37.082001
141 -118.522598 18.772100
142 -120.000000 0.000000
143 -118.522598 -18.772100
144 -114.126801 -37.082001
145 -106.920799 -54.478901
146 -97.082001 -70.534203
147 -84.852798 -84.852798
148 -70.534203 -97.082001
149 -54.478901 -106.920799
150 -37.082001 -114.126801
151 -18.772100 -118.522598
152 -0.000000 -120.000000
153 18.772100 -118.522598
154 37.082001 -114.126801
155 54.478901 -106.920799
156 70.534203 -97.082001
157 84.852798 -84.852798
158 97.082001 -70.534203
159 106.920799 -54.478901
160 114.126801 -37.082001
161 118.522598 -18.772100
162 150.000000 0.000000
163 148.153305 23.465200
164 142.658493 46.352501
165 133.651001 68.098602
166 121.352501 88.167801
167 106.066002 106.066002
168 88.167801 121.352501
169 68.098602 133.651001
170 46.352501 142.658493
171 23.465200 148.153305
172 0.000000 150.000000
173 -23.465200 148.153305
174 -46.352501 142.658493
175 -68.098602 133.651001
176 -88.167801 121.352501
177 -106.066002 106.066002
178 -121.352501 88.167801
179 -133.651001 68.098602
180 -142.658493 46.352501
181 -148.153305 23.465200
182 -150.000000 0.000000
183 -148.153305 -23.465200
184 -142.658493 -46.352501
185 -133.651001 -68.098602
186 -121.352501 -88.167801
187 -106.066002 -106.066002
188 -88.167801 -121.352501
189 -68.098602 -133.651001
190 -46.352501 -142.658493
191 -23.465200 -148.153305
192 -0.000000 -150.000000
193 23.465200 -148.153305
194 46.352501 -142.658493
195 68.098602 -133.651001
196 88.167801 -121.352501
197 106.066002 -106.066002
198 121.352501 -88.167801
199 133.651001 -68.098602
200 142.658493 -46.352501
201 148.153305 -23.465200
202 180.000000 0.000000
203 177.783905 28.158199
204 171.190201 55.623100
205 160.381195 81.718300
206 145.623093 105.801300
207 127.279198 127.279198
208 105.801300 145.623093
209 81.718300 160.381195
210 55.623100 171.190201
211 28.158199 177.783905
212 0.000000 180.000000
213 -28.158199 177.783905
214 -55.623100 171.190201
215 -81.718300 160.381195
216 -105.801300 145.623093
217 -127.279198 127.279198
218 -145.623093 105.801300
219 -160.381195 81.718300
220 -171.190201 55.623100
221 -177.783905 28.158199
222 -180.000000 0.000000
223 -177.783905 -28.158199
224 -171.190201 -55.623100
225 -160.381195 -81.718300
226 -145.623093 -105.801300
227 -127.279198 -127.279198
228 -105.801300 -145.623093
229 -81.718300 -160.381195
230 -55.623100 -171.190201
231 -28.158199 -177.783905
232 -0.000000 -180.000000
233 28.158199 -177.783905
234 55.623100 -171.190201
235 81.718300 -160.381195
236 105.801300 -145.623093
237 127.279198 -127.279198
238 145.623093 -105.801300
239 160.381195 -81.718300
240 171.190201 -55.623100
241 177.783905 -28.158199
242 210.000000 0.000000
243 207.414597 32.851200
244 199.721893 64.893600
245 187.111404 95.337997
246 169.893600 123.434898
247 148.492401 148.492401
248 123.434898 169.893600
249 95.337997 187.111404
250 64.893600 199.721893
251 32.851200 207.414597
252 0.000000 210.000000
253 -32.851200 207.414597
254 -64.893600 199.721893
255 -95.337997 187.111404
256 -123.434898 169.893600
257 -148.492401 148.492401
258 -169.893600 123.434898
259 -187.111404 95.337997
260 -199.721893 64.893600
261 -207.414597 32.851200
262 -210.000000 0.000000
263 -207.414597 -32.851200
264 -199.721893 -64.893600
265 -187.111404 -95.337997
266 -169.893600 -123.434898
267 -148.492401 -148.492401
268 -123.434898 -169.893600
269 -95.337997 -187.111404
270 -64.893600 -199.721893
271 -32.851200 -207.414597
272 -0.000000 -210.000000
273 32.851200 -207.414597
274 64.893600 -199.721893
275 95.337997 -187.111404
276 123.434898 -169.893600
277 148.492401 -148.492401
278 169.893600 -123.434898
279 187.111404 -95.337997
280 199.721893 -64.893600
281 207.414597 -32.851200
282 240.000000 0.000000
283 237.045197 37.544300
284 228.253601 74.164101
285 213.841599 108.957703
286 194.164093 141.068497
287 169.705597 169.705597
288 141.068497 194.164093
289 108.957703 213.841599
290 74.164101 228.253601
291 37.544300 237.045197
292 0.000000 240.000000
293 -37.544300 237.045197
294 -74.164101 228.253601
295 -108.957703 213.841599
296 -141.068497 194.164093
297 -169.705597 169.705597
298 -194.164093 141.068497
299 -213.841599 108.957703
300 -228.253601 74.164101
301 -237.045197 37.544300
302 -240.000000 0.000000
303 -237.045197 -37.544300
304 -228.253601 -74.164101
305 -213.841599 -108.957703
306 -194.164093 -141.068497
307 -169.705597 -169.705597
308 -141.068497 -194.164093
309 -108.957703 -213.841599
310 -74.164101 -228.253601
311 -37.544300 -237.045197
312 -0.000000 -240.000000
313 37.544300 -237.045197
314 74.164101 -228.253601
315 108.957703 -213.841599
316 141.068497 -194.164093
317 169.705597 -169.705597
318 194.164093 -141.068497
319 213.841599 -108.957703
320 228.253601 -74.164101
321 237.045197 -37.544300
322 270.000000 0.000000
323 266.675903 42.237301
324 256.785309 83.434601
325 240.571793 122.577400
326 218.434601 158.701996
327 190.918793 190.918793
328 158.701996 218.434601
329 122.577400 240.571793
330 83.434601 256.785309
331 42.237301 266.675903
332 0.000000 270.000000
333 -42.237301 266.675903
334 -83.434601 256.785309
335 -122.577400 240.571793
336 -158.701996 218.434601
337 -190.918793 190.918793
338 -218.434601 158.701996
339 -240.571793 122.577400
340 -256.785309 83.434601
341 -266.675903 42.237301
342 -270.000000 0.000000
343 -266.675903 -42.237301
344 -256.785309 -83.434601
345 -240.571793 -122.577400
346 -218.434601 -158.701996
347 -190.918793 -190.918793
348 -158.701996 -218.434601
349 -122.577400 -240.571793
350 -83.434601 -256.785309
351 -42.237301 -266.675903
352 -0.000000 -270.000000
353 42.237301 -266.675903
354 83.434601 -256.785309
355 122.577400 -240.571793
356 158.701996 -218.434601
357 190.918793 -190.918793
358 218.434601 -158.701996
359 240.571793 -122.577400
360 256.785309 -83.434601
361 266.675903 -42.237301
362 300.000000 0.000000
363 296.306488 46.930302
364 285.316986 92.705101
365 267.302002 136.197098
366 242.705093 176.335602
367 212.132004 212.132004
368 176.335602 242.705093
369 136.197098 267.302002
370 92.705101 285.316986
371 46.930302 296.306488
372 0.000000 300.000000
373 -46.930302 296.306488
374 -92.705101 285.316986
375 -136.197098 267.302002
376 -176.335602 242.705093
377 -212.132004 212.132004
378 -242.705093 176.335602
379 -267.302002 136.197098
380 -285.316986 92.705101
381 -296.306488 46.930302
382 -300.000000 0.000000
383 -296.306488 -46.930302
384 -285.316986 -92.705101
385 -267.302002 -136.197098
386 -242.705093 -176.335602
387 -212.132004 -212.132004
388 -176.335602 -242.705093
389 -136.197098 -267.302002
390 -92.705101 -285.316986
391 -46.930302 -296.306488
392 -0.000000 -300.000000
393 46.930302 -296.306488
394 92.705101 -285.316986
395 136.197098 -267.302002
396 176.335602 -242.705093
397 212.132004 -212.132004
398 242.705093 -176.335602
399 267.302002 -136.197098
400 285.316986 -92.705101
401 296.306488 -46.930302
402 330.000000 0.000000
403 325.937195 51.623402
404 313.848694 101.975601
405 294.032196 149.816895
406 266.975586 193.969101
407 233.345200 233.345200
408 193.969101 266.975586
409 149.816895 294.032196
410 101.975601 313.848694
411 51.623402 325.937195
412 0.000000 330.000000
413 -51.623402 325.937195
414 -101.975601 313.848694
415 -149.816895 294.032196
416 -193.969101 266.975586
417 -233.345200 233.345200
418 -266.975586 193.969101
419 -294.032196 149.816895
420 -313.848694 101.975601
421 -325.937195 51.623402
422 -330.000000 0.000000
423 -325.937195 -51.623402
424 -313.848694 -101.975601
425 -294.032196 -149.816895
426 -266.975586 -193.969101
427 -233.345200 -233.345200
428 -193.969101 -266.975586
429 -149.816895 -294.032196
430 -101.975601 -313.848694
431 -51.623402 -325.937195
432 -0.000000 -330.000000
433 51.623402 -325.937195
434 101.975601 -313.848694
435 149.816895 -294.032196
436 193.969101 -266.975586
437 233.345200 -233.345200
438 266.975586 -193.969101
439 294.032196 -149.816895
440 313.848694 -101.975601
441 325.937195 -51.623402
442 360.000000 0.000000
443 355.567810 56.316399
444 342.380310 111.246101
445 320.762299 163.436600
446 291.246094 211.602707
447 254.558395 254.558395
448 211.602707 291.246094
449 163.436600 320.762299
450 111.246101 342.380310
451 56.316399 355.567810
452 0.000000 360.000000
453 -56.316399 355.567810
454 -111.246101 342.380310
455 -163.436600 320.762299
456 -211.602707 291.246094
457 -254.558395 254.558395
458 -291.246094 211.602707
459 -320.762299 163.436600
460 -342.380310 111.246101
461 -355.567810 56.316399
462 -360.000000 0.000000
463 -355.567810 -56.316399
464 -342.380310 -111.246101
465 -320.762299 -163.436600
466 -291.246094 -211.602707
467 -254.558395 -254.558395
468 -211.602707 -291.246094
469 -163.436600 -320.762299
470 -111.246101 -342.380310
471 -56.316399 -355.567810
472 -0.000000 -360.000000
473 56.316399 -355.567810
474 111.246101 -342.380310
475 163.436600 -320.762299
476 211.602707 -291.246094
477 254.558395 -254.558395
478 291.246094 -211.602707
479 320.762299 -163.436600
480 342.380310 -111.246101
481 355.567810 -56.316399
482 390.000000 0.000000
483 385.198486 61.009399
484 370.911987 120.516602
485 347.492493 177.056305
486 315.516602 229.236206
487 275.771606 275.771606
488 229.236206 315.516602
489 177.056305 347.492493
490 120.516602 370.911987
491 61.009399 385.198486
492 0.000000 390.000000
493 -61.009399 385.198486
494 -120.516602 370.911987
495 -177.056305 347.492493
496 -229.236206 315.516602
497 -275.771606 275.771606
498 -315.516602 229.236206
499 -347.492493 177.056305
500 -370.911987 120.516602
501 -385.198486 61.009399
502 -390.000000 0.000000
503 -385.198486 -61.009399
504 -370.911987 -120.516602
505 -347.492493 -177.056305
506 -315.516602 -229.236206
507 -275.771606 -275.771606
508 -229.236206 -315.516602
509 -177.056305 -347.492493
510 -120.516602 -370.911987
511 -61.009399 -385.198486
512 -0.000000 -390.000000
513 61.009399 -385.198486
514 120.516602 -370.911987
515 177.056305 -347.492493
516 229.236206 -315.516602
517 275.771606 -275.771606
518 315.516602 -229.236206
519 347.492493 -177.056305
520 370.911987 -120.516602
521 385.198486 -61.009399
522 420.000000 0.000000
523 414.829102 65.702499
524 399.443695 129.787094
525 374.222687 190.675995
526 339.787109 246.869797
527 296.984802 296.984802
528 246.869797 339.787109
529 190.675995 374.222687
530 129.787094 399.443695
531 65.702499 414.829102
532 0.000000 420.000000
533 -65.702499 414.829102
534 -129.787094 399.443695
535 -190.675995 374.222687
536 -246.869797 339.787109
537 -296.984802 296.984802
538 -339.787109 246.869797
539 -374.222687 190.675995
540 -399.443695 129.787094
541 -414.829102 65.702499
542 -420.000000 0.000000
543 -414.829102 -65.702499
544 -399.443695 -129.787094
545 -374.222687 -190.675995
546 -339.787109 -246.869797
547 -296.984802 -296.984802
548 -246.869797 -339.787109
549 -190.675995 -374.222687
550 -129.787094 -399.443695
551 -65.702499 -414.829102
552 -0.000000 -420.000000
553 65.702499 -414.829102
554 129.787094 -399.443695
555 190.675995 -374.222687
556 246.869797 -339.787109
557 296.984802 -296.984802
558 339.787109 -246.869797
559 374.222687 -190.675995
560 399.443695 -129.787094
561 414.829102 -65.702499
562 450.000000 0.000000
563 444.459808 70.395500
564 427.975403 139.057602
565 400.952911 204.295700
566 364.057587 264.503387
567 318.198090 318.198090
568 264.503387 364.057587
569 204.295700 400.952911
570 139.057602 427.975403
571 70.395500 444.459808
572 0.000000 450.000000
573 -70.395500 444.459808
574 -139.057602 427.975403
575 -204.295700 400.952911
576 -264.503387 364.057587
577 -318.198090 318.198090
578 -364.057587 264.503387
579 -400.952911 204.295700
580 -427.975403 139.057602
581 -444.459808 70.395500
582 -450.000000 0.000000
583 -444.459808 -70.395500
584 -427.975403 -139.057602
585 -400.952911 -204.295700
586 -364.057587 -264.503387
587 -318.198090 -318.198090
588 -264.503387 -364.057587
589 -204.295700 -400.952911
590 -139.057602 -427.975403
591 -70.395500 -444.459808
592 -0.000000 -450.000000
593 70.395500 -444.459808
594 139.057602 -427.975403
595 204.295700 -400.952911
596 264.503387 -364.057587
597 318.198090 -318.198090
598 364.057587 -264.503387
599 400.952911 -204.295700
600 427.975403 -139.057602
601 444.459808 -70.395500
602 480.000000 0.000000
603 474.090393 75.088501
604 456.507111 148.328201
605 427.683105 217.915405
606 388.328186 282.136902
607 339.411285 339.411285
608 282.136902 388.328186
609 217.915405 427.683105
610 148.328201 456.507111
611 75.088501 474.090393
612 0.000000 480.000000
613 -75.088501 474.090393
614 -148.328201 456.507111
615 -217.915405 427.683105
616 -282.136902 388.328186
617 -339.411285 339.411285
618 -388.328186 282.136902
619 -427.683105 217.915405
620 -456.507111 148.328201
621 -474.090393 75.088501
622 -480.000000 0.000000
623 -474.090393 -75.088501
624 -456.507111 -148.328201
625 -427.683105 -217.915405
626 -388.328186 -282.136902
627 -339.411285 -339.411285
628 -282.136902 -388.328186
629 -217.915405 -427.683105
630 -148.328201 -456.507111
631 -75.088501 -474.090393
632 -0.000000 -480.000000
633 75.088501 -474.090393
634 148.328201 -456.507111
635 217.915405 -427.683105
636 282.136902 -388.328186
637 339.411285 -339.411285
638 388.328186 -282.136902
639 427.683105 -217.915405
640 456.507111 -148.328201
641 474.090393 -75.088501
642 510.000000 0.000000
643 503.721100 79.781601
644 485.038788 157.598694
645 454.413300 231.535202
646 412.598694 299.770508
647 360.624512 360.624512
648 299.770508 412.598694
649 231.535202 454.413300
650 157.598694 485.038788
651 79.781601 503.721100
652 0.000000 510.000000
653 -79.781601 503.721100
654 -157.598694 485.038788
655 -231.535202 454.413300
656 -299.770508 412.598694
657 -360.624512 360.624512
658 -412.598694 299.770508
659 -454.413300 231.535202
660 -485.038788 157.598694
661 -503.721100 79.781601
662 -510.000000 0.000000
663 -503.721100 -79.781601
664 -485.038788 -157.598694
665 -454.413300 -231.535202
666 -412.598694 -299.770508
667 -360.624512 -360.624512
668 -299.770508 -412.598694
669 -231.535202 -454.413300
670 -157.598694 -485.038788
671 -79.781601 -503.721100
672 -0.000000 -510.000000
673 79.781601 -503.721100
674 157.598694 -485.038788
675 231.535202 -454.413300
676 299.770508 -412.598694
677 360.624512 -360.624512
678 412.598694 -299.770508
679 454.413300 -231.535202
680 485.038788 -157.598694
681 503.721100 -79.781601
682 540.000000 0.000000
683 533.351685 84.474602
684 513.570496 166.869202
685 481.143494 245.154907
686 436.869202 317.403992
687 381.837708 381.837708
688 317.403992 436.869202
689 245.154907 481.143494
690 166.869202 513.570496
691 84.474602 533.351685
692 0.000000 540.000000
693 -84.474602 533.351685
694 -166.869202 513.570496
695 -245.154907 481.143494
696 -317.403992 436.869202
697 -381.837708 381.837708
698 -436.869202 317.403992
699 -481.143494 245.154907
700 -513.570496 166.869202
701 -533.351685 84.474602
702 -540.000000 0.000000
703 -533.351685 -84.474602
704 -513.570496 -166.869202
705 -481.143494 -245.154907
706 -436.869202 -317.403992
707 -381.837708 -381.837708
708 -317.403992 -436.869202
709 -245.154907 -481.143494
710 -166.869202 -513.570496
711 -84.474602 -533.351685
712 -0.000000 -540.000000
713 84.474602 -533.351685
714 166.869202 -513.570496
715 245.154907 -481.143494
716 317.403992 -436.869202
717 381.837708 -381.837708
718 436.869202 -317.403992
719 481.143494 -245.154907
720 513.570496 -166.869202
721 533.351685 -84.474602
GVRP_SET_SECTION 
 1 682  642 -1
 2  702  622  662 -1
 3  692  652 -1
 4  712  632  672 -1
 5  7  2  3  4  5  6  8  9  10  11  12  13  14  15  16  17  18  19  20  21  22  23  24  37  38  39  40  41  42  43  44  45  46  47  48  49  50  51  52 -1
 6  687  647 -1
 7  697  657 -1
 8  707  667 -1
 9  717  677 -1
 10  344  304  305  343  345  384 -1
 11  354  313  314  353  355  394 -1
 12  364  324  363  365  403  404 -1
 13  370  330  369  371  410  411  450 -1
 14  337  296  297  336  338  377 -1
 15  429  389  428  469 -1
 16  439  399  438  440  479 -1
 17  494  454  534  574 -1
 18  500  460  540  580 -1
 19  189  147  148  149  150  187  188  190  228  229  230 -1
 20  584  544  624 -1
 21  594  554  634 -1
 22  604  564  644  684 -1
 23  609  569  649  689 -1
 24  709  629  669 -1
 25  719  639  679 -1
 26  695  655 -1
 27  699  659 -1
 28  447  407  487 -1
 29  213  172  173  174  212  214  253 -1
 30  241  162  201  202  240  280  281 -1
 31  180  139  140  141  178  179  181  219  220  221 -1
 32  207  166  167  168  206  208  246  247  248 -1
 33  506  466  546 -1
 34  512  472  552  592 -1
 35  516  476  556 -1
 36  561  521  601  641 -1
 37  531  491  571 -1
 38  536  496  576 -1
 39  538  498  578 -1
 40  196  155  156  157  195  197  236 -1
 41  341  301  340  342  381  382 -1
 42  502  462  542  582 -1
 43  588  508  548  628 -1
 44  590  550  630 -1
 45  598  518  558  638 -1
 46  705  665 -1
 47  715  675 -1
 48  347  307  346  348  386  387  388 -1
 49  351  311  312  350  352  390  391  392 -1
 50  357  317  356  358  396  397  398 -1
 51  566  486  526  606 -1
 52  373  333  372  374  413  414 -1
 53  483  443  523  563 -1
 54  401  361  362  400  441 -1
 55  613  573  653  693 -1
 56  621  541  581  661  701 -1
 57  685  605  645 -1
 58  690  650 -1
 59  225  185  186  224  226  264  265 -1
 60  326  286  287  325  327  366  367 -1
 61  375  335  376  415  416  455 -1
 62  379  339  378  380  418  419  420  459 -1
 63  640  600  680  720 -1
 64  104  60  61  62  63  64  65  66  67  100  101  102  103  105  106  107  144  145  146 -1
 65  124  83  84  85  86  87  122  123  125  126  127  163  164  165 -1
 66  130  88  89  90  91  92  128  129  131  132  133  169  170  171 -1
 67  96  53  54  55  56  57  58  59  93  94  95  97  98  99  134  135  136  137  138 -1
 68  244  203  204  205  243  245  284  285 -1
 69  250  209  210  211  249  251  289  290 -1
 70  464  424  504 -1
 71  474  434  514 -1
 72  489  449  529 -1
 73  626  586  666  706 -1
 74  636  596  676  716 -1
 75  485  445  525  565 -1
 76  651  611  691 -1
 77  656  616  696 -1
 78  658  618  698 -1
 79  663  623  703 -1
 80  671  631  711 -1
 81  673  633  713 -1
 82  457  417  456  458  497 -1
 83  309  269  270  308  310  349 -1
 84  319  279  318  320  359  360 -1
 85  683  603  643 -1
 86  686  646 -1
 87  688  648 -1
 88  694  614  654 -1
 89  700  620  660 -1
 90  704  664 -1
 91  708  668 -1
 92  710  670 -1
 93  714  674 -1
 94  718  678 -1
 95  721  681 -1
 96  72  25  26  27  28  29  30  31  32  33  34  35  36  68  69  70  71  73  74  75  76  108  109  110  111  112 -1
 97  216  175  176  177  215  217  255  256 -1
 98  328  288  329  368 -1
 99  232  191  192  231  233  271  272  273 -1
 100  119  77  78  79  80  81  82  116  117  118  120  121  158  159  160  161 -1
 101  452  412  451  492 -1
 102  568  488  528  608 -1
 103  549  509  589 -1
 104  559  519  599 -1
 105  562  522  602 -1
 106  570  490  530  610 -1
 107  572  532  612 -1
 108  575  495  535  615 -1
 109  577  537  617 -1
 110  579  499  539  619 -1
 111  262  222  261  263  302  303 -1
 112  567  527  607 -1
 113  585  505  545  625 -1
 114  587  547  627 -1
 115  595  515  555  635 -1
 116  597  557  637 -1
 117  520  480  560 -1
 118  543  503  583 -1
 119  551  511  591 -1
 120  553  513  593 -1
 121  258  218  257  259  298  299 -1
 122  282  242  283  321  322  323 -1
 123  292  252  291  293  331  332 -1
 124  294  254  295  334 -1
 125  275  234  235  274  276  315  316 -1
 126  442  402  481  482 -1
 127  461  421  501 -1
 128  467  427  468  507 -1
 129  477  437  478  517 -1
 130  423  383  422  463 -1
 131  425  385  426  465 -1
 132  433  393  432  473 -1
 133  435  395  436  475 -1
 134  470  430  510 -1
 135  153  113  114  115  151  152  154  193  194 -1
 136  484  444  524 -1
 137  493  453  533 -1
 138  183  142  143  182  184  223 -1
 139  199  198  200  238  239 -1
 140  260  300 -1
 141  267  227  266  268  306 -1
 142  277  237  278 -1
 143  406  405  446 -1
 144  408  409  448 -1
 145  431  471 -1
 DEMAND_SECTION
 1 20 
 2 30 
 3 60 
 4 90 
 5 790 
 6 60 
 7 20 
 8 60 
 9 20 
 10 140 
 11 80 
 12 160 
 13 110 
 14 100 
 15 60 
 16 130 
 17 40 
 18 120 
 19 210 
 20 90 
 21 30 
 22 120 
 23 40 
 24 30 
 25 90 
 26 60 
 27 60 
 28 90 
 29 110 
 30 110 
 31 220 
 32 210 
 33 30 
 34 120 
 35 90 
 36 40 
 37 90 
 38 90 
 39 30 
 40 170 
 41 80 
 42 40 
 43 120 
 44 30 
 45 40 
 46 20 
 47 60 
 48 170 
 49 200 
 50 110 
 51 40 
 52 80 
 53 120 
 54 70 
 55 40 
 56 50 
 57 30 
 58 20 
 59 110 
 60 130 
 61 180 
 62 200 
 63 120 
 64 370 
 65 300 
 66 280 
 67 350 
 68 180 
 69 120 
 70 90 
 71 30 
 72 30 
 73 40 
 74 120 
 75 40 
 76 90 
 77 90 
 78 30 
 79 90 
 80 90 
 81 30 
 82 70 
 83 80 
 84 160 
 85 90 
 86 20 
 87 60 
 88 30 
 89 90 
 90 60 
 91 60 
 92 20 
 93 20 
 94 20 
 95 20 
 96 540 
 97 200 
 98 100 
 99 200 
 100 300 
 101 120 
 102 120 
 103 30 
 104 90 
 105 30 
 106 40 
 107 90 
 108 120 
 109 30 
 110 120 
 111 100 
 112 90 
 113 40 
 114 90 
 115 120 
 116 30 
 117 90 
 118 90 
 119 90 
 120 30 
 121 100 
 122 100 
 123 160 
 124 60 
 125 170 
 126 40 
 127 30 
 128 120 
 129 40 
 130 100 
 131 40 
 132 60 
 133 120 
 134 30 
 135 150 
 136 90 
 137 30 
 138 140 
 139 110 
 140 60 
 141 110 
 142 30 
 143 30 
 144 70 
 145 60 
EOF
